
Welcome to IBM(R) ILOG(R) CPLEX(R) Interactive Optimizer 22.1.1.0
  with Simplex, Mixed Integer & Barrier Optimizers
5725-A06 5725-A29 5724-Y48 5724-Y49 5724-Y54 5724-Y55 5655-Y21
Copyright IBM Corp. 1988, 2022.  All Rights Reserved.

Type 'help' for a list of available commands.
Type 'help' followed by a command name for more
information on commands.

CPLEX> Selected objective sense:  MINIMIZE
Selected objective  name:  00000000
Selected RHS        name:  RHS1
Selected bound      name:  BOUND
Problem 'ee.mps' read.
Read time = 0.03 sec. (3.14 ticks)
CPLEX> New value for time limit in seconds: 7200
CPLEX> New value for parallel optimization mode: -1
CPLEX> New value for default parallel thread count: 40
CPLEX> New value for mixed integer optimality gap tolerance: 1e-13
CPLEX> Version identifier: 22.1.1.0 | 2022-11-28 | 9160aff4d
CPXPARAM_Threads                                 40
CPXPARAM_Parallel                                -1
CPXPARAM_TimeLimit                               7200
CPXPARAM_MIP_Tolerances_MIPGap                   1e-13
Found incumbent of value 0.000000 after 0.00 sec. (0.31 ticks)
Tried aggregator 3 times.
MIP Presolve eliminated 758 rows and 3849 columns.
MIP Presolve modified 5559 coefficients.
Aggregator did 629 substitutions.
Reduced MIP has 3133 rows, 6753 columns, and 24545 nonzeros.
Reduced MIP has 6753 binaries, 0 generals, 0 SOSs, and 0 indicators.
Presolve time = 0.07 sec. (74.87 ticks)
Probing fixed 52 vars, tightened 0 bounds.
Probing time = 0.05 sec. (24.40 ticks)
Tried aggregator 2 times.
Detecting symmetries...
MIP Presolve eliminated 11 rows and 62 columns.
Aggregator did 8 substitutions.
Reduced MIP has 3114 rows, 6680 columns, and 24274 nonzeros.
Reduced MIP has 6680 binaries, 0 generals, 0 SOSs, and 0 indicators.
Presolve time = 0.04 sec. (43.13 ticks)
Probing time = 0.03 sec. (11.93 ticks)
Clique table members: 15960.
MIP emphasis: balance optimality and feasibility.
MIP search method: dynamic search.
Parallel mode: opportunistic, using up to 40 threads.
Root relaxation solution time = 0.11 sec. (90.95 ticks)

        Nodes                                         Cuts/
   Node  Left     Objective  IInf  Best Integer    Best Bound    ItCnt     Gap

*     0+    0                            0.0000  -1.31000e+13              --- 
*     0+    0                      -5.39000e+12  -1.31000e+13           143.04%
      0     0  -1.30900e+13   113  -5.39000e+12  -1.30900e+13     2200  142.86%
*     0+    0                      -1.30900e+13  -1.30900e+13             0.00%
      0     0  -1.30900e+13    89  -1.30900e+13      Cuts: 98     2739    0.00%
      0     0  -1.30900e+13   140  -1.30900e+13      Cuts: 82     3023    0.00%
*     0+    0                      -1.30900e+13  -1.30900e+13             0.00%
      0     0  -1.30900e+13   174  -1.30900e+13      Cuts: 67     3076    0.00%
*     0+    0                      -1.30900e+13  -1.30900e+13             0.00%

Repeating presolve.
Tried aggregator 3 times.
MIP Presolve eliminated 1723 rows and 4339 columns.
MIP Presolve added 18 rows and 0 columns.
MIP Presolve modified 122 coefficients.
Aggregator did 331 substitutions.
Reduced MIP has 1078 rows, 1980 columns, and 7059 nonzeros.
Reduced MIP has 1980 binaries, 0 generals, 0 SOSs, and 0 indicators.
Presolve time = 0.03 sec. (27.29 ticks)
Probing fixed 55 vars, tightened 0 bounds.
Probing time = 0.02 sec. (27.20 ticks)
Tried aggregator 2 times.
MIP Presolve eliminated 47 rows and 72 columns.
Aggregator did 18 substitutions.
Reduced MIP has 1013 rows, 1889 columns, and 6696 nonzeros.
Reduced MIP has 1889 binaries, 0 generals, 0 SOSs, and 0 indicators.
Presolve time = 0.01 sec. (11.50 ticks)
Probing time = 0.01 sec. (9.80 ticks)
Tried aggregator 1 time.
Detecting symmetries...
MIP Presolve eliminated 7 rows and 3 columns.
Reduced MIP has 1006 rows, 1885 columns, and 6673 nonzeros.
Reduced MIP has 1885 binaries, 0 generals, 0 SOSs, and 0 indicators.
Presolve time = 0.01 sec. (7.98 ticks)
Represolve time = 0.09 sec. (101.28 ticks)
Probing time = 0.00 sec. (3.16 ticks)
Clique table members: 4430.
MIP emphasis: balance optimality and feasibility.
MIP search method: dynamic search.
Parallel mode: opportunistic, using up to 40 threads.
Root relaxation solution time = 0.03 sec. (22.76 ticks)

        Nodes                                         Cuts/
   Node  Left     Objective  IInf  Best Integer    Best Bound    ItCnt     Gap

*     0+    0                      -1.30900e+13  -1.30900e+13             0.00%
      0     0  -1.30900e+13   120  -1.30900e+13  -1.30900e+13     4153    0.00%
      0     0  -1.30900e+13    89  -1.30900e+13      Cuts: 87     4352    0.00%
      0     0  -1.30900e+13   122  -1.30900e+13      Cuts: 64     4462    0.00%
      0     0  -1.30900e+13   111  -1.30900e+13      Cuts: 34     4499    0.00%
      0     0  -1.30900e+13   102  -1.30900e+13      Cuts: 38     4530    0.00%
      0     0  -1.30900e+13   119  -1.30900e+13      Cuts: 34     4576    0.00%
      0     2  -1.30900e+13    96  -1.30900e+13  -1.30900e+13     4576    0.00%
Elapsed time = 1.52 sec. (1104.14 ticks, tree = 0.02 MB, solutions = 5)
*    73    21      integral     0  -1.30900e+13  -1.30900e+13    13285    0.00%

GUB cover cuts applied:  9
Clique cuts applied:  21
Cover cuts applied:  156
Flow cuts applied:  1
Mixed integer rounding cuts applied:  17
Zero-half cuts applied:  22
Lift and project cuts applied:  26
Gomory fractional cuts applied:  19

Root node processing (before b&c):
  Real time             =    1.30 sec. (1104.67 ticks)
Parallel b&c, 40 threads:
  Real time             =    0.64 sec. (61.41 ticks)
  Sync time (average)   =    0.39 sec.
  Wait time (average)   =    0.00 sec.
                          ------------
Total (root+branch&cut) =    1.94 sec. (1166.08 ticks)

Solution pool: 15 solutions saved.

MIP - Integer optimal solution:  Objective = -1.3089997989e+13
Solution time =    1.98 sec.  Iterations = 14278  Nodes = 322
Deterministic time = 1166.11 ticks  (589.74 ticks/sec)

CPLEX> Solution 'p16' written to file 'ee.sol'.
CPLEX> 